(set-logic QF_S)
(set-option :strings-exp true)
(set-option :produce-models true)
(declare-fun sigmaStar_0 () String)
(declare-fun sigmaStar_1 () String)
(declare-fun literal_2 () String)
(declare-fun x_3 () String)
(declare-fun x_6 () String)
(declare-fun epsilon () String)
(declare-fun literal_5 () String)
(assert (= literal_2 "\x23\x73\x69\x64\x3d"))
(assert (= x_3 (str.++ sigmaStar_0 literal_2)))
(assert (= epsilon ""))
(assert (= literal_5 "\x72\x65\x64\x69\x72\x65\x63\x74"))
(assert (or (= x_6 epsilon) (= x_6 literal_5)))
(assert (str.in.re x_6 (re.++ (re.* re.allchar) (re.++ (str.to.re "\x5c\x3c\x53\x43\x52\x49\x50\x54") (re.* re.allchar)))))
(check-sat)
(get-model)
